commons/LK_FILES/TIC10-10-10-3.tsp
NAME: TIC10-10-10-3
TYPE: TSP
COMMENT: TSP
DIMENSION: 6
EDGE_WEIGHT_TYPE: EXPLICIT
EDGE_WEIGHT_FORMAT: FULL_MATRIX
EDGE_WEIGHT_SECTION
0 136 372 272 328 68 
136 0 68 76 306 430 
372 68 0 433 419 110 
272 76 433 0 309 128 
328 306 419 309 0 445 
68 430 110 128 445 0 
EOF
