commons/LK_FILES/TIC10-10-10-3.tour
NAME : TIC10-10-10-3.959.tour
COMMENT : Length = 959
COMMENT : Found by LKH [Keld Helsgaun] Thu Dec 15 16:56:37 2016
TYPE : TOUR
DIMENSION : 6
TOUR_SECTION
1
5
4
2
3
6
-1
EOF
